p cnf 756 2280
1 2 3 0
-163 0
-1 164 0
-2 164 0
-1 -2 165 0
-3 166 0
-163 166 0
-3 -163 167 0
-164 168 0
-166 168 0
-164 -166 169 0
-165 170 0
-167 170 0
-165 -167 171 0
-169 172 0
-170 172 0
-169 -170 173 0
-172 0
28 29 30 0
-174 0
-28 175 0
-29 175 0
-28 -29 176 0
-30 177 0
-174 177 0
-30 -174 178 0
-175 179 0
-177 179 0
-175 -177 180 0
-176 181 0
-178 181 0
-176 -178 182 0
-180 183 0
-181 183 0
-180 -181 184 0
-183 0
55 56 57 0
-185 0
-55 186 0
-56 186 0
-55 -56 187 0
-57 188 0
-185 188 0
-57 -185 189 0
-186 190 0
-188 190 0
-186 -188 191 0
-187 192 0
-189 192 0
-187 -189 193 0
-191 194 0
-192 194 0
-191 -192 195 0
-194 0
82 83 84 0
-196 0
-82 197 0
-83 197 0
-82 -83 198 0
-84 199 0
-196 199 0
-84 -196 200 0
-197 201 0
-199 201 0
-197 -199 202 0
-198 203 0
-200 203 0
-198 -200 204 0
-202 205 0
-203 205 0
-202 -203 206 0
-205 0
109 110 111 0
-207 0
-109 208 0
-110 208 0
-109 -110 209 0
-111 210 0
-207 210 0
-111 -207 211 0
-208 212 0
-210 212 0
-208 -210 213 0
-209 214 0
-211 214 0
-209 -211 215 0
-213 216 0
-214 216 0
-213 -214 217 0
-216 0
136 137 138 0
-218 0
-136 219 0
-137 219 0
-136 -137 220 0
-138 221 0
-218 221 0
-138 -218 222 0
-219 223 0
-221 223 0
-219 -221 224 0
-220 225 0
-222 225 0
-220 -222 226 0
-224 227 0
-225 227 0
-224 -225 228 0
-227 0
4 5 6 0
-229 0
-4 230 0
-5 230 0
-4 -5 231 0
-6 232 0
-229 232 0
-6 -229 233 0
-230 234 0
-232 234 0
-230 -232 235 0
-231 236 0
-233 236 0
-231 -233 237 0
-235 238 0
-236 238 0
-235 -236 239 0
-238 0
31 32 33 0
-240 0
-31 241 0
-32 241 0
-31 -32 242 0
-33 243 0
-240 243 0
-33 -240 244 0
-241 245 0
-243 245 0
-241 -243 246 0
-242 247 0
-244 247 0
-242 -244 248 0
-246 249 0
-247 249 0
-246 -247 250 0
-249 0
58 59 60 0
-251 0
-58 252 0
-59 252 0
-58 -59 253 0
-60 254 0
-251 254 0
-60 -251 255 0
-252 256 0
-254 256 0
-252 -254 257 0
-253 258 0
-255 258 0
-253 -255 259 0
-257 260 0
-258 260 0
-257 -258 261 0
-260 0
85 86 87 0
-262 0
-85 263 0
-86 263 0
-85 -86 264 0
-87 265 0
-262 265 0
-87 -262 266 0
-263 267 0
-265 267 0
-263 -265 268 0
-264 269 0
-266 269 0
-264 -266 270 0
-268 271 0
-269 271 0
-268 -269 272 0
-271 0
112 113 114 0
-273 0
-112 274 0
-113 274 0
-112 -113 275 0
-114 276 0
-273 276 0
-114 -273 277 0
-274 278 0
-276 278 0
-274 -276 279 0
-275 280 0
-277 280 0
-275 -277 281 0
-279 282 0
-280 282 0
-279 -280 283 0
-282 0
139 140 141 0
-284 0
-139 285 0
-140 285 0
-139 -140 286 0
-141 287 0
-284 287 0
-141 -284 288 0
-285 289 0
-287 289 0
-285 -287 290 0
-286 291 0
-288 291 0
-286 -288 292 0
-290 293 0
-291 293 0
-290 -291 294 0
-293 0
7 8 9 0
-295 0
-7 296 0
-8 296 0
-7 -8 297 0
-9 298 0
-295 298 0
-9 -295 299 0
-296 300 0
-298 300 0
-296 -298 301 0
-297 302 0
-299 302 0
-297 -299 303 0
-301 304 0
-302 304 0
-301 -302 305 0
-304 0
34 35 36 0
-306 0
-34 307 0
-35 307 0
-34 -35 308 0
-36 309 0
-306 309 0
-36 -306 310 0
-307 311 0
-309 311 0
-307 -309 312 0
-308 313 0
-310 313 0
-308 -310 314 0
-312 315 0
-313 315 0
-312 -313 316 0
-315 0
61 62 63 0
-317 0
-61 318 0
-62 318 0
-61 -62 319 0
-63 320 0
-317 320 0
-63 -317 321 0
-318 322 0
-320 322 0
-318 -320 323 0
-319 324 0
-321 324 0
-319 -321 325 0
-323 326 0
-324 326 0
-323 -324 327 0
-326 0
88 89 90 0
-328 0
-88 329 0
-89 329 0
-88 -89 330 0
-90 331 0
-328 331 0
-90 -328 332 0
-329 333 0
-331 333 0
-329 -331 334 0
-330 335 0
-332 335 0
-330 -332 336 0
-334 337 0
-335 337 0
-334 -335 338 0
-337 0
115 116 117 0
-339 0
-115 340 0
-116 340 0
-115 -116 341 0
-117 342 0
-339 342 0
-117 -339 343 0
-340 344 0
-342 344 0
-340 -342 345 0
-341 346 0
-343 346 0
-341 -343 347 0
-345 348 0
-346 348 0
-345 -346 349 0
-348 0
142 143 144 0
-350 0
-142 351 0
-143 351 0
-142 -143 352 0
-144 353 0
-350 353 0
-144 -350 354 0
-351 355 0
-353 355 0
-351 -353 356 0
-352 357 0
-354 357 0
-352 -354 358 0
-356 359 0
-357 359 0
-356 -357 360 0
-359 0
10 11 12 0
-361 0
-10 362 0
-11 362 0
-10 -11 363 0
-12 364 0
-361 364 0
-12 -361 365 0
-362 366 0
-364 366 0
-362 -364 367 0
-363 368 0
-365 368 0
-363 -365 369 0
-367 370 0
-368 370 0
-367 -368 371 0
-370 0
37 38 39 0
-372 0
-37 373 0
-38 373 0
-37 -38 374 0
-39 375 0
-372 375 0
-39 -372 376 0
-373 377 0
-375 377 0
-373 -375 378 0
-374 379 0
-376 379 0
-374 -376 380 0
-378 381 0
-379 381 0
-378 -379 382 0
-381 0
64 65 66 0
-383 0
-64 384 0
-65 384 0
-64 -65 385 0
-66 386 0
-383 386 0
-66 -383 387 0
-384 388 0
-386 388 0
-384 -386 389 0
-385 390 0
-387 390 0
-385 -387 391 0
-389 392 0
-390 392 0
-389 -390 393 0
-392 0
91 92 93 0
-394 0
-91 395 0
-92 395 0
-91 -92 396 0
-93 397 0
-394 397 0
-93 -394 398 0
-395 399 0
-397 399 0
-395 -397 400 0
-396 401 0
-398 401 0
-396 -398 402 0
-400 403 0
-401 403 0
-400 -401 404 0
-403 0
118 119 120 0
-405 0
-118 406 0
-119 406 0
-118 -119 407 0
-120 408 0
-405 408 0
-120 -405 409 0
-406 410 0
-408 410 0
-406 -408 411 0
-407 412 0
-409 412 0
-407 -409 413 0
-411 414 0
-412 414 0
-411 -412 415 0
-414 0
145 146 147 0
-416 0
-145 417 0
-146 417 0
-145 -146 418 0
-147 419 0
-416 419 0
-147 -416 420 0
-417 421 0
-419 421 0
-417 -419 422 0
-418 423 0
-420 423 0
-418 -420 424 0
-422 425 0
-423 425 0
-422 -423 426 0
-425 0
13 14 15 0
-427 0
-13 428 0
-14 428 0
-13 -14 429 0
-15 430 0
-427 430 0
-15 -427 431 0
-428 432 0
-430 432 0
-428 -430 433 0
-429 434 0
-431 434 0
-429 -431 435 0
-433 436 0
-434 436 0
-433 -434 437 0
-436 0
40 41 42 0
-438 0
-40 439 0
-41 439 0
-40 -41 440 0
-42 441 0
-438 441 0
-42 -438 442 0
-439 443 0
-441 443 0
-439 -441 444 0
-440 445 0
-442 445 0
-440 -442 446 0
-444 447 0
-445 447 0
-444 -445 448 0
-447 0
67 68 69 0
-449 0
-67 450 0
-68 450 0
-67 -68 451 0
-69 452 0
-449 452 0
-69 -449 453 0
-450 454 0
-452 454 0
-450 -452 455 0
-451 456 0
-453 456 0
-451 -453 457 0
-455 458 0
-456 458 0
-455 -456 459 0
-458 0
94 95 96 0
-460 0
-94 461 0
-95 461 0
-94 -95 462 0
-96 463 0
-460 463 0
-96 -460 464 0
-461 465 0
-463 465 0
-461 -463 466 0
-462 467 0
-464 467 0
-462 -464 468 0
-466 469 0
-467 469 0
-466 -467 470 0
-469 0
121 122 123 0
-471 0
-121 472 0
-122 472 0
-121 -122 473 0
-123 474 0
-471 474 0
-123 -471 475 0
-472 476 0
-474 476 0
-472 -474 477 0
-473 478 0
-475 478 0
-473 -475 479 0
-477 480 0
-478 480 0
-477 -478 481 0
-480 0
148 149 150 0
-482 0
-148 483 0
-149 483 0
-148 -149 484 0
-150 485 0
-482 485 0
-150 -482 486 0
-483 487 0
-485 487 0
-483 -485 488 0
-484 489 0
-486 489 0
-484 -486 490 0
-488 491 0
-489 491 0
-488 -489 492 0
-491 0
16 17 18 0
-493 0
-16 494 0
-17 494 0
-16 -17 495 0
-18 496 0
-493 496 0
-18 -493 497 0
-494 498 0
-496 498 0
-494 -496 499 0
-495 500 0
-497 500 0
-495 -497 501 0
-499 502 0
-500 502 0
-499 -500 503 0
-502 0
43 44 45 0
-504 0
-43 505 0
-44 505 0
-43 -44 506 0
-45 507 0
-504 507 0
-45 -504 508 0
-505 509 0
-507 509 0
-505 -507 510 0
-506 511 0
-508 511 0
-506 -508 512 0
-510 513 0
-511 513 0
-510 -511 514 0
-513 0
70 71 72 0
-515 0
-70 516 0
-71 516 0
-70 -71 517 0
-72 518 0
-515 518 0
-72 -515 519 0
-516 520 0
-518 520 0
-516 -518 521 0
-517 522 0
-519 522 0
-517 -519 523 0
-521 524 0
-522 524 0
-521 -522 525 0
-524 0
97 98 99 0
-526 0
-97 527 0
-98 527 0
-97 -98 528 0
-99 529 0
-526 529 0
-99 -526 530 0
-527 531 0
-529 531 0
-527 -529 532 0
-528 533 0
-530 533 0
-528 -530 534 0
-532 535 0
-533 535 0
-532 -533 536 0
-535 0
124 125 126 0
-537 0
-124 538 0
-125 538 0
-124 -125 539 0
-126 540 0
-537 540 0
-126 -537 541 0
-538 542 0
-540 542 0
-538 -540 543 0
-539 544 0
-541 544 0
-539 -541 545 0
-543 546 0
-544 546 0
-543 -544 547 0
-546 0
151 152 153 0
-548 0
-151 549 0
-152 549 0
-151 -152 550 0
-153 551 0
-548 551 0
-153 -548 552 0
-549 553 0
-551 553 0
-549 -551 554 0
-550 555 0
-552 555 0
-550 -552 556 0
-554 557 0
-555 557 0
-554 -555 558 0
-557 0
19 20 21 0
-559 0
-19 560 0
-20 560 0
-19 -20 561 0
-21 562 0
-559 562 0
-21 -559 563 0
-560 564 0
-562 564 0
-560 -562 565 0
-561 566 0
-563 566 0
-561 -563 567 0
-565 568 0
-566 568 0
-565 -566 569 0
-568 0
46 47 48 0
-570 0
-46 571 0
-47 571 0
-46 -47 572 0
-48 573 0
-570 573 0
-48 -570 574 0
-571 575 0
-573 575 0
-571 -573 576 0
-572 577 0
-574 577 0
-572 -574 578 0
-576 579 0
-577 579 0
-576 -577 580 0
-579 0
73 74 75 0
-581 0
-73 582 0
-74 582 0
-73 -74 583 0
-75 584 0
-581 584 0
-75 -581 585 0
-582 586 0
-584 586 0
-582 -584 587 0
-583 588 0
-585 588 0
-583 -585 589 0
-587 590 0
-588 590 0
-587 -588 591 0
-590 0
100 101 102 0
-592 0
-100 593 0
-101 593 0
-100 -101 594 0
-102 595 0
-592 595 0
-102 -592 596 0
-593 597 0
-595 597 0
-593 -595 598 0
-594 599 0
-596 599 0
-594 -596 600 0
-598 601 0
-599 601 0
-598 -599 602 0
-601 0
127 128 129 0
-603 0
-127 604 0
-128 604 0
-127 -128 605 0
-129 606 0
-603 606 0
-129 -603 607 0
-604 608 0
-606 608 0
-604 -606 609 0
-605 610 0
-607 610 0
-605 -607 611 0
-609 612 0
-610 612 0
-609 -610 613 0
-612 0
154 155 156 0
-614 0
-154 615 0
-155 615 0
-154 -155 616 0
-156 617 0
-614 617 0
-156 -614 618 0
-615 619 0
-617 619 0
-615 -617 620 0
-616 621 0
-618 621 0
-616 -618 622 0
-620 623 0
-621 623 0
-620 -621 624 0
-623 0
22 23 24 0
-625 0
-22 626 0
-23 626 0
-22 -23 627 0
-24 628 0
-625 628 0
-24 -625 629 0
-626 630 0
-628 630 0
-626 -628 631 0
-627 632 0
-629 632 0
-627 -629 633 0
-631 634 0
-632 634 0
-631 -632 635 0
-634 0
49 50 51 0
-636 0
-49 637 0
-50 637 0
-49 -50 638 0
-51 639 0
-636 639 0
-51 -636 640 0
-637 641 0
-639 641 0
-637 -639 642 0
-638 643 0
-640 643 0
-638 -640 644 0
-642 645 0
-643 645 0
-642 -643 646 0
-645 0
76 77 78 0
-647 0
-76 648 0
-77 648 0
-76 -77 649 0
-78 650 0
-647 650 0
-78 -647 651 0
-648 652 0
-650 652 0
-648 -650 653 0
-649 654 0
-651 654 0
-649 -651 655 0
-653 656 0
-654 656 0
-653 -654 657 0
-656 0
103 104 105 0
-658 0
-103 659 0
-104 659 0
-103 -104 660 0
-105 661 0
-658 661 0
-105 -658 662 0
-659 663 0
-661 663 0
-659 -661 664 0
-660 665 0
-662 665 0
-660 -662 666 0
-664 667 0
-665 667 0
-664 -665 668 0
-667 0
130 131 132 0
-669 0
-130 670 0
-131 670 0
-130 -131 671 0
-132 672 0
-669 672 0
-132 -669 673 0
-670 674 0
-672 674 0
-670 -672 675 0
-671 676 0
-673 676 0
-671 -673 677 0
-675 678 0
-676 678 0
-675 -676 679 0
-678 0
157 158 159 0
-680 0
-157 681 0
-158 681 0
-157 -158 682 0
-159 683 0
-680 683 0
-159 -680 684 0
-681 685 0
-683 685 0
-681 -683 686 0
-682 687 0
-684 687 0
-682 -684 688 0
-686 689 0
-687 689 0
-686 -687 690 0
-689 0
25 26 27 0
-691 0
-25 692 0
-26 692 0
-25 -26 693 0
-27 694 0
-691 694 0
-27 -691 695 0
-692 696 0
-694 696 0
-692 -694 697 0
-693 698 0
-695 698 0
-693 -695 699 0
-697 700 0
-698 700 0
-697 -698 701 0
-700 0
52 53 54 0
-702 0
-52 703 0
-53 703 0
-52 -53 704 0
-54 705 0
-702 705 0
-54 -702 706 0
-703 707 0
-705 707 0
-703 -705 708 0
-704 709 0
-706 709 0
-704 -706 710 0
-708 711 0
-709 711 0
-708 -709 712 0
-711 0
79 80 81 0
-713 0
-79 714 0
-80 714 0
-79 -80 715 0
-81 716 0
-713 716 0
-81 -713 717 0
-714 718 0
-716 718 0
-714 -716 719 0
-715 720 0
-717 720 0
-715 -717 721 0
-719 722 0
-720 722 0
-719 -720 723 0
-722 0
106 107 108 0
-724 0
-106 725 0
-107 725 0
-106 -107 726 0
-108 727 0
-724 727 0
-108 -724 728 0
-725 729 0
-727 729 0
-725 -727 730 0
-726 731 0
-728 731 0
-726 -728 732 0
-730 733 0
-731 733 0
-730 -731 734 0
-733 0
133 134 135 0
-735 0
-133 736 0
-134 736 0
-133 -134 737 0
-135 738 0
-735 738 0
-135 -735 739 0
-736 740 0
-738 740 0
-736 -738 741 0
-737 742 0
-739 742 0
-737 -739 743 0
-741 744 0
-742 744 0
-741 -742 745 0
-744 0
160 161 162 0
-746 0
-160 747 0
-161 747 0
-160 -161 748 0
-162 749 0
-746 749 0
-162 -746 750 0
-747 751 0
-749 751 0
-747 -749 752 0
-748 753 0
-750 753 0
-748 -750 754 0
-752 755 0
-753 755 0
-752 -753 756 0
-755 0
-1 -28 -136 5 0
-1 -29 -136 5 0
-1 -30 -136 5 0
-1 -28 -137 5 0
-1 -29 -137 5 0
-1 -30 -137 5 0
-1 -28 -138 5 0
-1 -29 -138 5 0
-1 -30 -138 5 0
-2 -28 -136 5 0
-2 -29 -136 5 0
-2 -30 -136 5 0
-2 -28 -137 5 0
-2 -29 -137 6 0
-2 -30 -137 6 0
-2 -28 -138 5 0
-2 -29 -138 6 0
-2 -30 -138 6 0
-3 -28 -136 5 0
-3 -29 -136 5 0
-3 -30 -136 5 0
-3 -28 -137 5 0
-3 -29 -137 6 0
-3 -30 -137 6 0
-3 -28 -138 5 0
-3 -29 -138 6 0
-3 -30 -138 4 0
-28 -1 -55 32 0
-28 -2 -55 32 0
-28 -3 -55 32 0
-28 -1 -56 32 0
-28 -2 -56 32 0
-28 -3 -56 32 0
-28 -1 -57 32 0
-28 -2 -57 32 0
-28 -3 -57 32 0
-29 -1 -55 32 0
-29 -2 -55 32 0
-29 -3 -55 32 0
-29 -1 -56 32 0
-29 -2 -56 33 0
-29 -3 -56 33 0
-29 -1 -57 32 0
-29 -2 -57 33 0
-29 -3 -57 33 0
-30 -1 -55 32 0
-30 -2 -55 32 0
-30 -3 -55 32 0
-30 -1 -56 32 0
-30 -2 -56 33 0
-30 -3 -56 33 0
-30 -1 -57 32 0
-30 -2 -57 33 0
-30 -3 -57 31 0
-55 -28 -82 59 0
-55 -29 -82 59 0
-55 -30 -82 59 0
-55 -28 -83 59 0
-55 -29 -83 59 0
-55 -30 -83 59 0
-55 -28 -84 59 0
-55 -29 -84 59 0
-55 -30 -84 59 0
-56 -28 -82 59 0
-56 -29 -82 59 0
-56 -30 -82 59 0
-56 -28 -83 59 0
-56 -29 -83 60 0
-56 -30 -83 60 0
-56 -28 -84 59 0
-56 -29 -84 60 0
-56 -30 -84 60 0
-57 -28 -82 59 0
-57 -29 -82 59 0
-57 -30 -82 59 0
-57 -28 -83 59 0
-57 -29 -83 60 0
-57 -30 -83 60 0
-57 -28 -84 59 0
-57 -29 -84 60 0
-57 -30 -84 58 0
-82 -55 -109 86 0
-82 -56 -109 86 0
-82 -57 -109 86 0
-82 -55 -110 86 0
-82 -56 -110 86 0
-82 -57 -110 86 0
-82 -55 -111 86 0
-82 -56 -111 86 0
-82 -57 -111 86 0
-83 -55 -109 86 0
-83 -56 -109 86 0
-83 -57 -109 86 0
-83 -55 -110 86 0
-83 -56 -110 87 0
-83 -57 -110 87 0
-83 -55 -111 86 0
-83 -56 -111 87 0
-83 -57 -111 87 0
-84 -55 -109 86 0
-84 -56 -109 86 0
-84 -57 -109 86 0
-84 -55 -110 86 0
-84 -56 -110 87 0
-84 -57 -110 87 0
-84 -55 -111 86 0
-84 -56 -111 87 0
-84 -57 -111 85 0
-109 -82 -136 113 0
-109 -83 -136 113 0
-109 -84 -136 113 0
-109 -82 -137 113 0
-109 -83 -137 113 0
-109 -84 -137 113 0
-109 -82 -138 113 0
-109 -83 -138 113 0
-109 -84 -138 113 0
-110 -82 -136 113 0
-110 -83 -136 113 0
-110 -84 -136 113 0
-110 -82 -137 113 0
-110 -83 -137 114 0
-110 -84 -137 114 0
-110 -82 -138 113 0
-110 -83 -138 114 0
-110 -84 -138 114 0
-111 -82 -136 113 0
-111 -83 -136 113 0
-111 -84 -136 113 0
-111 -82 -137 113 0
-111 -83 -137 114 0
-111 -84 -137 114 0
-111 -82 -138 113 0
-111 -83 -138 114 0
-111 -84 -138 112 0
-136 -1 -109 140 0
-136 -2 -109 140 0
-136 -3 -109 140 0
-136 -1 -110 140 0
-136 -2 -110 140 0
-136 -3 -110 140 0
-136 -1 -111 140 0
-136 -2 -111 140 0
-136 -3 -111 140 0
-137 -1 -109 140 0
-137 -2 -109 140 0
-137 -3 -109 140 0
-137 -1 -110 140 0
-137 -2 -110 141 0
-137 -3 -110 141 0
-137 -1 -111 140 0
-137 -2 -111 141 0
-137 -3 -111 141 0
-138 -1 -109 140 0
-138 -2 -109 140 0
-138 -3 -109 140 0
-138 -1 -110 140 0
-138 -2 -110 141 0
-138 -3 -110 141 0
-138 -1 -111 140 0
-138 -2 -111 141 0
-138 -3 -111 139 0
-4 -31 -139 8 0
-4 -32 -139 8 0
-4 -33 -139 8 0
-4 -31 -140 8 0
-4 -32 -140 8 0
-4 -33 -140 8 0
-4 -31 -141 8 0
-4 -32 -141 8 0
-4 -33 -141 8 0
-5 -31 -139 8 0
-5 -32 -139 8 0
-5 -33 -139 8 0
-5 -31 -140 8 0
-5 -32 -140 9 0
-5 -33 -140 9 0
-5 -31 -141 8 0
-5 -32 -141 9 0
-5 -33 -141 9 0
-6 -31 -139 8 0
-6 -32 -139 8 0
-6 -33 -139 8 0
-6 -31 -140 8 0
-6 -32 -140 9 0
-6 -33 -140 9 0
-6 -31 -141 8 0
-6 -32 -141 9 0
-6 -33 -141 7 0
-31 -4 -58 35 0
-31 -5 -58 35 0
-31 -6 -58 35 0
-31 -4 -59 35 0
-31 -5 -59 35 0
-31 -6 -59 35 0
-31 -4 -60 35 0
-31 -5 -60 35 0
-31 -6 -60 35 0
-32 -4 -58 35 0
-32 -5 -58 35 0
-32 -6 -58 35 0
-32 -4 -59 35 0
-32 -5 -59 36 0
-32 -6 -59 36 0
-32 -4 -60 35 0
-32 -5 -60 36 0
-32 -6 -60 36 0
-33 -4 -58 35 0
-33 -5 -58 35 0
-33 -6 -58 35 0
-33 -4 -59 35 0
-33 -5 -59 36 0
-33 -6 -59 36 0
-33 -4 -60 35 0
-33 -5 -60 36 0
-33 -6 -60 34 0
-58 -31 -85 62 0
-58 -32 -85 62 0
-58 -33 -85 62 0
-58 -31 -86 62 0
-58 -32 -86 62 0
-58 -33 -86 62 0
-58 -31 -87 62 0
-58 -32 -87 62 0
-58 -33 -87 62 0
-59 -31 -85 62 0
-59 -32 -85 62 0
-59 -33 -85 62 0
-59 -31 -86 62 0
-59 -32 -86 63 0
-59 -33 -86 63 0
-59 -31 -87 62 0
-59 -32 -87 63 0
-59 -33 -87 63 0
-60 -31 -85 62 0
-60 -32 -85 62 0
-60 -33 -85 62 0
-60 -31 -86 62 0
-60 -32 -86 63 0
-60 -33 -86 63 0
-60 -31 -87 62 0
-60 -32 -87 63 0
-60 -33 -87 61 0
-85 -58 -112 89 0
-85 -59 -112 89 0
-85 -60 -112 89 0
-85 -58 -113 89 0
-85 -59 -113 89 0
-85 -60 -113 89 0
-85 -58 -114 89 0
-85 -59 -114 89 0
-85 -60 -114 89 0
-86 -58 -112 89 0
-86 -59 -112 89 0
-86 -60 -112 89 0
-86 -58 -113 89 0
-86 -59 -113 90 0
-86 -60 -113 90 0
-86 -58 -114 89 0
-86 -59 -114 90 0
-86 -60 -114 90 0
-87 -58 -112 89 0
-87 -59 -112 89 0
-87 -60 -112 89 0
-87 -58 -113 89 0
-87 -59 -113 90 0
-87 -60 -113 90 0
-87 -58 -114 89 0
-87 -59 -114 90 0
-87 -60 -114 88 0
-112 -85 -139 116 0
-112 -86 -139 116 0
-112 -87 -139 116 0
-112 -85 -140 116 0
-112 -86 -140 116 0
-112 -87 -140 116 0
-112 -85 -141 116 0
-112 -86 -141 116 0
-112 -87 -141 116 0
-113 -85 -139 116 0
-113 -86 -139 116 0
-113 -87 -139 116 0
-113 -85 -140 116 0
-113 -86 -140 117 0
-113 -87 -140 117 0
-113 -85 -141 116 0
-113 -86 -141 117 0
-113 -87 -141 117 0
-114 -85 -139 116 0
-114 -86 -139 116 0
-114 -87 -139 116 0
-114 -85 -140 116 0
-114 -86 -140 117 0
-114 -87 -140 117 0
-114 -85 -141 116 0
-114 -86 -141 117 0
-114 -87 -141 115 0
-139 -4 -112 143 0
-139 -5 -112 143 0
-139 -6 -112 143 0
-139 -4 -113 143 0
-139 -5 -113 143 0
-139 -6 -113 143 0
-139 -4 -114 143 0
-139 -5 -114 143 0
-139 -6 -114 143 0
-140 -4 -112 143 0
-140 -5 -112 143 0
-140 -6 -112 143 0
-140 -4 -113 143 0
-140 -5 -113 144 0
-140 -6 -113 144 0
-140 -4 -114 143 0
-140 -5 -114 144 0
-140 -6 -114 144 0
-141 -4 -112 143 0
-141 -5 -112 143 0
-141 -6 -112 143 0
-141 -4 -113 143 0
-141 -5 -113 144 0
-141 -6 -113 144 0
-141 -4 -114 143 0
-141 -5 -114 144 0
-141 -6 -114 142 0
-7 -34 -142 11 0
-7 -35 -142 11 0
-7 -36 -142 11 0
-7 -34 -143 11 0
-7 -35 -143 11 0
-7 -36 -143 11 0
-7 -34 -144 11 0
-7 -35 -144 11 0
-7 -36 -144 11 0
-8 -34 -142 11 0
-8 -35 -142 11 0
-8 -36 -142 11 0
-8 -34 -143 11 0
-8 -35 -143 12 0
-8 -36 -143 12 0
-8 -34 -144 11 0
-8 -35 -144 12 0
-8 -36 -144 12 0
-9 -34 -142 11 0
-9 -35 -142 11 0
-9 -36 -142 11 0
-9 -34 -143 11 0
-9 -35 -143 12 0
-9 -36 -143 12 0
-9 -34 -144 11 0
-9 -35 -144 12 0
-9 -36 -144 10 0
-34 -7 -61 38 0
-34 -8 -61 38 0
-34 -9 -61 38 0
-34 -7 -62 38 0
-34 -8 -62 38 0
-34 -9 -62 38 0
-34 -7 -63 38 0
-34 -8 -63 38 0
-34 -9 -63 38 0
-35 -7 -61 38 0
-35 -8 -61 38 0
-35 -9 -61 38 0
-35 -7 -62 38 0
-35 -8 -62 39 0
-35 -9 -62 39 0
-35 -7 -63 38 0
-35 -8 -63 39 0
-35 -9 -63 39 0
-36 -7 -61 38 0
-36 -8 -61 38 0
-36 -9 -61 38 0
-36 -7 -62 38 0
-36 -8 -62 39 0
-36 -9 -62 39 0
-36 -7 -63 38 0
-36 -8 -63 39 0
-36 -9 -63 37 0
-61 -34 -88 65 0
-61 -35 -88 65 0
-61 -36 -88 65 0
-61 -34 -89 65 0
-61 -35 -89 65 0
-61 -36 -89 65 0
-61 -34 -90 65 0
-61 -35 -90 65 0
-61 -36 -90 65 0
-62 -34 -88 65 0
-62 -35 -88 65 0
-62 -36 -88 65 0
-62 -34 -89 65 0
-62 -35 -89 66 0
-62 -36 -89 66 0
-62 -34 -90 65 0
-62 -35 -90 66 0
-62 -36 -90 66 0
-63 -34 -88 65 0
-63 -35 -88 65 0
-63 -36 -88 65 0
-63 -34 -89 65 0
-63 -35 -89 66 0
-63 -36 -89 66 0
-63 -34 -90 65 0
-63 -35 -90 66 0
-63 -36 -90 64 0
-88 -61 -115 92 0
-88 -62 -115 92 0
-88 -63 -115 92 0
-88 -61 -116 92 0
-88 -62 -116 92 0
-88 -63 -116 92 0
-88 -61 -117 92 0
-88 -62 -117 92 0
-88 -63 -117 92 0
-89 -61 -115 92 0
-89 -62 -115 92 0
-89 -63 -115 92 0
-89 -61 -116 92 0
-89 -62 -116 93 0
-89 -63 -116 93 0
-89 -61 -117 92 0
-89 -62 -117 93 0
-89 -63 -117 93 0
-90 -61 -115 92 0
-90 -62 -115 92 0
-90 -63 -115 92 0
-90 -61 -116 92 0
-90 -62 -116 93 0
-90 -63 -116 93 0
-90 -61 -117 92 0
-90 -62 -117 93 0
-90 -63 -117 91 0
-115 -88 -142 119 0
-115 -89 -142 119 0
-115 -90 -142 119 0
-115 -88 -143 119 0
-115 -89 -143 119 0
-115 -90 -143 119 0
-115 -88 -144 119 0
-115 -89 -144 119 0
-115 -90 -144 119 0
-116 -88 -142 119 0
-116 -89 -142 119 0
-116 -90 -142 119 0
-116 -88 -143 119 0
-116 -89 -143 120 0
-116 -90 -143 120 0
-116 -88 -144 119 0
-116 -89 -144 120 0
-116 -90 -144 120 0
-117 -88 -142 119 0
-117 -89 -142 119 0
-117 -90 -142 119 0
-117 -88 -143 119 0
-117 -89 -143 120 0
-117 -90 -143 120 0
-117 -88 -144 119 0
-117 -89 -144 120 0
-117 -90 -144 118 0
-142 -7 -115 146 0
-142 -8 -115 146 0
-142 -9 -115 146 0
-142 -7 -116 146 0
-142 -8 -116 146 0
-142 -9 -116 146 0
-142 -7 -117 146 0
-142 -8 -117 146 0
-142 -9 -117 146 0
-143 -7 -115 146 0
-143 -8 -115 146 0
-143 -9 -115 146 0
-143 -7 -116 146 0
-143 -8 -116 147 0
-143 -9 -116 147 0
-143 -7 -117 146 0
-143 -8 -117 147 0
-143 -9 -117 147 0
-144 -7 -115 146 0
-144 -8 -115 146 0
-144 -9 -115 146 0
-144 -7 -116 146 0
-144 -8 -116 147 0
-144 -9 -116 147 0
-144 -7 -117 146 0
-144 -8 -117 147 0
-144 -9 -117 145 0
-10 -37 -145 14 0
-10 -38 -145 14 0
-10 -39 -145 14 0
-10 -37 -146 14 0
-10 -38 -146 14 0
-10 -39 -146 14 0
-10 -37 -147 14 0
-10 -38 -147 14 0
-10 -39 -147 14 0
-11 -37 -145 14 0
-11 -38 -145 14 0
-11 -39 -145 14 0
-11 -37 -146 14 0
-11 -38 -146 15 0
-11 -39 -146 15 0
-11 -37 -147 14 0
-11 -38 -147 15 0
-11 -39 -147 15 0
-12 -37 -145 14 0
-12 -38 -145 14 0
-12 -39 -145 14 0
-12 -37 -146 14 0
-12 -38 -146 15 0
-12 -39 -146 15 0
-12 -37 -147 14 0
-12 -38 -147 15 0
-12 -39 -147 13 0
-37 -10 -64 41 0
-37 -11 -64 41 0
-37 -12 -64 41 0
-37 -10 -65 41 0
-37 -11 -65 41 0
-37 -12 -65 41 0
-37 -10 -66 41 0
-37 -11 -66 41 0
-37 -12 -66 41 0
-38 -10 -64 41 0
-38 -11 -64 41 0
-38 -12 -64 41 0
-38 -10 -65 41 0
-38 -11 -65 42 0
-38 -12 -65 42 0
-38 -10 -66 41 0
-38 -11 -66 42 0
-38 -12 -66 42 0
-39 -10 -64 41 0
-39 -11 -64 41 0
-39 -12 -64 41 0
-39 -10 -65 41 0
-39 -11 -65 42 0
-39 -12 -65 42 0
-39 -10 -66 41 0
-39 -11 -66 42 0
-39 -12 -66 40 0
-64 -37 -91 68 0
-64 -38 -91 68 0
-64 -39 -91 68 0
-64 -37 -92 68 0
-64 -38 -92 68 0
-64 -39 -92 68 0
-64 -37 -93 68 0
-64 -38 -93 68 0
-64 -39 -93 68 0
-65 -37 -91 68 0
-65 -38 -91 68 0
-65 -39 -91 68 0
-65 -37 -92 68 0
-65 -38 -92 69 0
-65 -39 -92 69 0
-65 -37 -93 68 0
-65 -38 -93 69 0
-65 -39 -93 69 0
-66 -37 -91 68 0
-66 -38 -91 68 0
-66 -39 -91 68 0
-66 -37 -92 68 0
-66 -38 -92 69 0
-66 -39 -92 69 0
-66 -37 -93 68 0
-66 -38 -93 69 0
-66 -39 -93 67 0
-91 -64 -118 95 0
-91 -65 -118 95 0
-91 -66 -118 95 0
-91 -64 -119 95 0
-91 -65 -119 95 0
-91 -66 -119 95 0
-91 -64 -120 95 0
-91 -65 -120 95 0
-91 -66 -120 95 0
-92 -64 -118 95 0
-92 -65 -118 95 0
-92 -66 -118 95 0
-92 -64 -119 95 0
-92 -65 -119 96 0
-92 -66 -119 96 0
-92 -64 -120 95 0
-92 -65 -120 96 0
-92 -66 -120 96 0
-93 -64 -118 95 0
-93 -65 -118 95 0
-93 -66 -118 95 0
-93 -64 -119 95 0
-93 -65 -119 96 0
-93 -66 -119 96 0
-93 -64 -120 95 0
-93 -65 -120 96 0
-93 -66 -120 94 0
-118 -91 -145 122 0
-118 -92 -145 122 0
-118 -93 -145 122 0
-118 -91 -146 122 0
-118 -92 -146 122 0
-118 -93 -146 122 0
-118 -91 -147 122 0
-118 -92 -147 122 0
-118 -93 -147 122 0
-119 -91 -145 122 0
-119 -92 -145 122 0
-119 -93 -145 122 0
-119 -91 -146 122 0
-119 -92 -146 123 0
-119 -93 -146 123 0
-119 -91 -147 122 0
-119 -92 -147 123 0
-119 -93 -147 123 0
-120 -91 -145 122 0
-120 -92 -145 122 0
-120 -93 -145 122 0
-120 -91 -146 122 0
-120 -92 -146 123 0
-120 -93 -146 123 0
-120 -91 -147 122 0
-120 -92 -147 123 0
-120 -93 -147 121 0
-145 -10 -118 149 0
-145 -11 -118 149 0
-145 -12 -118 149 0
-145 -10 -119 149 0
-145 -11 -119 149 0
-145 -12 -119 149 0
-145 -10 -120 149 0
-145 -11 -120 149 0
-145 -12 -120 149 0
-146 -10 -118 149 0
-146 -11 -118 149 0
-146 -12 -118 149 0
-146 -10 -119 149 0
-146 -11 -119 150 0
-146 -12 -119 150 0
-146 -10 -120 149 0
-146 -11 -120 150 0
-146 -12 -120 150 0
-147 -10 -118 149 0
-147 -11 -118 149 0
-147 -12 -118 149 0
-147 -10 -119 149 0
-147 -11 -119 150 0
-147 -12 -119 150 0
-147 -10 -120 149 0
-147 -11 -120 150 0
-147 -12 -120 148 0
-13 -40 -148 17 0
-13 -41 -148 17 0
-13 -42 -148 17 0
-13 -40 -149 17 0
-13 -41 -149 17 0
-13 -42 -149 17 0
-13 -40 -150 17 0
-13 -41 -150 17 0
-13 -42 -150 17 0
-14 -40 -148 17 0
-14 -41 -148 17 0
-14 -42 -148 17 0
-14 -40 -149 17 0
-14 -41 -149 18 0
-14 -42 -149 18 0
-14 -40 -150 17 0
-14 -41 -150 18 0
-14 -42 -150 18 0
-15 -40 -148 17 0
-15 -41 -148 17 0
-15 -42 -148 17 0
-15 -40 -149 17 0
-15 -41 -149 18 0
-15 -42 -149 18 0
-15 -40 -150 17 0
-15 -41 -150 18 0
-15 -42 -150 16 0
-40 -13 -67 44 0
-40 -14 -67 44 0
-40 -15 -67 44 0
-40 -13 -68 44 0
-40 -14 -68 44 0
-40 -15 -68 44 0
-40 -13 -69 44 0
-40 -14 -69 44 0
-40 -15 -69 44 0
-41 -13 -67 44 0
-41 -14 -67 44 0
-41 -15 -67 44 0
-41 -13 -68 44 0
-41 -14 -68 45 0
-41 -15 -68 45 0
-41 -13 -69 44 0
-41 -14 -69 45 0
-41 -15 -69 45 0
-42 -13 -67 44 0
-42 -14 -67 44 0
-42 -15 -67 44 0
-42 -13 -68 44 0
-42 -14 -68 45 0
-42 -15 -68 45 0
-42 -13 -69 44 0
-42 -14 -69 45 0
-42 -15 -69 43 0
-67 -40 -94 71 0
-67 -41 -94 71 0
-67 -42 -94 71 0
-67 -40 -95 71 0
-67 -41 -95 71 0
-67 -42 -95 71 0
-67 -40 -96 71 0
-67 -41 -96 71 0
-67 -42 -96 71 0
-68 -40 -94 71 0
-68 -41 -94 71 0
-68 -42 -94 71 0
-68 -40 -95 71 0
-68 -41 -95 72 0
-68 -42 -95 72 0
-68 -40 -96 71 0
-68 -41 -96 72 0
-68 -42 -96 72 0
-69 -40 -94 71 0
-69 -41 -94 71 0
-69 -42 -94 71 0
-69 -40 -95 71 0
-69 -41 -95 72 0
-69 -42 -95 72 0
-69 -40 -96 71 0
-69 -41 -96 72 0
-69 -42 -96 70 0
-94 -67 -121 98 0
-94 -68 -121 98 0
-94 -69 -121 98 0
-94 -67 -122 98 0
-94 -68 -122 98 0
-94 -69 -122 98 0
-94 -67 -123 98 0
-94 -68 -123 98 0
-94 -69 -123 98 0
-95 -67 -121 98 0
-95 -68 -121 98 0
-95 -69 -121 98 0
-95 -67 -122 98 0
-95 -68 -122 99 0
-95 -69 -122 99 0
-95 -67 -123 98 0
-95 -68 -123 99 0
-95 -69 -123 99 0
-96 -67 -121 98 0
-96 -68 -121 98 0
-96 -69 -121 98 0
-96 -67 -122 98 0
-96 -68 -122 99 0
-96 -69 -122 99 0
-96 -67 -123 98 0
-96 -68 -123 99 0
-96 -69 -123 97 0
-121 -94 -148 125 0
-121 -95 -148 125 0
-121 -96 -148 125 0
-121 -94 -149 125 0
-121 -95 -149 125 0
-121 -96 -149 125 0
-121 -94 -150 125 0
-121 -95 -150 125 0
-121 -96 -150 125 0
-122 -94 -148 125 0
-122 -95 -148 125 0
-122 -96 -148 125 0
-122 -94 -149 125 0
-122 -95 -149 126 0
-122 -96 -149 126 0
-122 -94 -150 125 0
-122 -95 -150 126 0
-122 -96 -150 126 0
-123 -94 -148 125 0
-123 -95 -148 125 0
-123 -96 -148 125 0
-123 -94 -149 125 0
-123 -95 -149 126 0
-123 -96 -149 126 0
-123 -94 -150 125 0
-123 -95 -150 126 0
-123 -96 -150 124 0
-148 -13 -121 152 0
-148 -14 -121 152 0
-148 -15 -121 152 0
-148 -13 -122 152 0
-148 -14 -122 152 0
-148 -15 -122 152 0
-148 -13 -123 152 0
-148 -14 -123 152 0
-148 -15 -123 152 0
-149 -13 -121 152 0
-149 -14 -121 152 0
-149 -15 -121 152 0
-149 -13 -122 152 0
-149 -14 -122 153 0
-149 -15 -122 153 0
-149 -13 -123 152 0
-149 -14 -123 153 0
-149 -15 -123 153 0
-150 -13 -121 152 0
-150 -14 -121 152 0
-150 -15 -121 152 0
-150 -13 -122 152 0
-150 -14 -122 153 0
-150 -15 -122 153 0
-150 -13 -123 152 0
-150 -14 -123 153 0
-150 -15 -123 151 0
-16 -43 -151 20 0
-16 -44 -151 20 0
-16 -45 -151 20 0
-16 -43 -152 20 0
-16 -44 -152 20 0
-16 -45 -152 20 0
-16 -43 -153 20 0
-16 -44 -153 20 0
-16 -45 -153 20 0
-17 -43 -151 20 0
-17 -44 -151 20 0
-17 -45 -151 20 0
-17 -43 -152 20 0
-17 -44 -152 21 0
-17 -45 -152 21 0
-17 -43 -153 20 0
-17 -44 -153 21 0
-17 -45 -153 21 0
-18 -43 -151 20 0
-18 -44 -151 20 0
-18 -45 -151 20 0
-18 -43 -152 20 0
-18 -44 -152 21 0
-18 -45 -152 21 0
-18 -43 -153 20 0
-18 -44 -153 21 0
-18 -45 -153 19 0
-43 -16 -70 47 0
-43 -17 -70 47 0
-43 -18 -70 47 0
-43 -16 -71 47 0
-43 -17 -71 47 0
-43 -18 -71 47 0
-43 -16 -72 47 0
-43 -17 -72 47 0
-43 -18 -72 47 0
-44 -16 -70 47 0
-44 -17 -70 47 0
-44 -18 -70 47 0
-44 -16 -71 47 0
-44 -17 -71 48 0
-44 -18 -71 48 0
-44 -16 -72 47 0
-44 -17 -72 48 0
-44 -18 -72 48 0
-45 -16 -70 47 0
-45 -17 -70 47 0
-45 -18 -70 47 0
-45 -16 -71 47 0
-45 -17 -71 48 0
-45 -18 -71 48 0
-45 -16 -72 47 0
-45 -17 -72 48 0
-45 -18 -72 46 0
-70 -43 -97 74 0
-70 -44 -97 74 0
-70 -45 -97 74 0
-70 -43 -98 74 0
-70 -44 -98 74 0
-70 -45 -98 74 0
-70 -43 -99 74 0
-70 -44 -99 74 0
-70 -45 -99 74 0
-71 -43 -97 74 0
-71 -44 -97 74 0
-71 -45 -97 74 0
-71 -43 -98 74 0
-71 -44 -98 75 0
-71 -45 -98 75 0
-71 -43 -99 74 0
-71 -44 -99 75 0
-71 -45 -99 75 0
-72 -43 -97 74 0
-72 -44 -97 74 0
-72 -45 -97 74 0
-72 -43 -98 74 0
-72 -44 -98 75 0
-72 -45 -98 75 0
-72 -43 -99 74 0
-72 -44 -99 75 0
-72 -45 -99 73 0
-97 -70 -124 101 0
-97 -71 -124 101 0
-97 -72 -124 101 0
-97 -70 -125 101 0
-97 -71 -125 101 0
-97 -72 -125 101 0
-97 -70 -126 101 0
-97 -71 -126 101 0
-97 -72 -126 101 0
-98 -70 -124 101 0
-98 -71 -124 101 0
-98 -72 -124 101 0
-98 -70 -125 101 0
-98 -71 -125 102 0
-98 -72 -125 102 0
-98 -70 -126 101 0
-98 -71 -126 102 0
-98 -72 -126 102 0
-99 -70 -124 101 0
-99 -71 -124 101 0
-99 -72 -124 101 0
-99 -70 -125 101 0
-99 -71 -125 102 0
-99 -72 -125 102 0
-99 -70 -126 101 0
-99 -71 -126 102 0
-99 -72 -126 100 0
-124 -97 -151 128 0
-124 -98 -151 128 0
-124 -99 -151 128 0
-124 -97 -152 128 0
-124 -98 -152 128 0
-124 -99 -152 128 0
-124 -97 -153 128 0
-124 -98 -153 128 0
-124 -99 -153 128 0
-125 -97 -151 128 0
-125 -98 -151 128 0
-125 -99 -151 128 0
-125 -97 -152 128 0
-125 -98 -152 129 0
-125 -99 -152 129 0
-125 -97 -153 128 0
-125 -98 -153 129 0
-125 -99 -153 129 0
-126 -97 -151 128 0
-126 -98 -151 128 0
-126 -99 -151 128 0
-126 -97 -152 128 0
-126 -98 -152 129 0
-126 -99 -152 129 0
-126 -97 -153 128 0
-126 -98 -153 129 0
-126 -99 -153 127 0
-151 -16 -124 155 0
-151 -17 -124 155 0
-151 -18 -124 155 0
-151 -16 -125 155 0
-151 -17 -125 155 0
-151 -18 -125 155 0
-151 -16 -126 155 0
-151 -17 -126 155 0
-151 -18 -126 155 0
-152 -16 -124 155 0
-152 -17 -124 155 0
-152 -18 -124 155 0
-152 -16 -125 155 0
-152 -17 -125 156 0
-152 -18 -125 156 0
-152 -16 -126 155 0
-152 -17 -126 156 0
-152 -18 -126 156 0
-153 -16 -124 155 0
-153 -17 -124 155 0
-153 -18 -124 155 0
-153 -16 -125 155 0
-153 -17 -125 156 0
-153 -18 -125 156 0
-153 -16 -126 155 0
-153 -17 -126 156 0
-153 -18 -126 154 0
-19 -46 -154 23 0
-19 -47 -154 23 0
-19 -48 -154 23 0
-19 -46 -155 23 0
-19 -47 -155 23 0
-19 -48 -155 23 0
-19 -46 -156 23 0
-19 -47 -156 23 0
-19 -48 -156 23 0
-20 -46 -154 23 0
-20 -47 -154 23 0
-20 -48 -154 23 0
-20 -46 -155 23 0
-20 -47 -155 24 0
-20 -48 -155 24 0
-20 -46 -156 23 0
-20 -47 -156 24 0
-20 -48 -156 24 0
-21 -46 -154 23 0
-21 -47 -154 23 0
-21 -48 -154 23 0
-21 -46 -155 23 0
-21 -47 -155 24 0
-21 -48 -155 24 0
-21 -46 -156 23 0
-21 -47 -156 24 0
-21 -48 -156 22 0
-46 -19 -73 50 0
-46 -20 -73 50 0
-46 -21 -73 50 0
-46 -19 -74 50 0
-46 -20 -74 50 0
-46 -21 -74 50 0
-46 -19 -75 50 0
-46 -20 -75 50 0
-46 -21 -75 50 0
-47 -19 -73 50 0
-47 -20 -73 50 0
-47 -21 -73 50 0
-47 -19 -74 50 0
-47 -20 -74 51 0
-47 -21 -74 51 0
-47 -19 -75 50 0
-47 -20 -75 51 0
-47 -21 -75 51 0
-48 -19 -73 50 0
-48 -20 -73 50 0
-48 -21 -73 50 0
-48 -19 -74 50 0
-48 -20 -74 51 0
-48 -21 -74 51 0
-48 -19 -75 50 0
-48 -20 -75 51 0
-48 -21 -75 49 0
-73 -46 -100 77 0
-73 -47 -100 77 0
-73 -48 -100 77 0
-73 -46 -101 77 0
-73 -47 -101 77 0
-73 -48 -101 77 0
-73 -46 -102 77 0
-73 -47 -102 77 0
-73 -48 -102 77 0
-74 -46 -100 77 0
-74 -47 -100 77 0
-74 -48 -100 77 0
-74 -46 -101 77 0
-74 -47 -101 78 0
-74 -48 -101 78 0
-74 -46 -102 77 0
-74 -47 -102 78 0
-74 -48 -102 78 0
-75 -46 -100 77 0
-75 -47 -100 77 0
-75 -48 -100 77 0
-75 -46 -101 77 0
-75 -47 -101 78 0
-75 -48 -101 78 0
-75 -46 -102 77 0
-75 -47 -102 78 0
-75 -48 -102 76 0
-100 -73 -127 104 0
-100 -74 -127 104 0
-100 -75 -127 104 0
-100 -73 -128 104 0
-100 -74 -128 104 0
-100 -75 -128 104 0
-100 -73 -129 104 0
-100 -74 -129 104 0
-100 -75 -129 104 0
-101 -73 -127 104 0
-101 -74 -127 104 0
-101 -75 -127 104 0
-101 -73 -128 104 0
-101 -74 -128 105 0
-101 -75 -128 105 0
-101 -73 -129 104 0
-101 -74 -129 105 0
-101 -75 -129 105 0
-102 -73 -127 104 0
-102 -74 -127 104 0
-102 -75 -127 104 0
-102 -73 -128 104 0
-102 -74 -128 105 0
-102 -75 -128 105 0
-102 -73 -129 104 0
-102 -74 -129 105 0
-102 -75 -129 103 0
-127 -100 -154 131 0
-127 -101 -154 131 0
-127 -102 -154 131 0
-127 -100 -155 131 0
-127 -101 -155 131 0
-127 -102 -155 131 0
-127 -100 -156 131 0
-127 -101 -156 131 0
-127 -102 -156 131 0
-128 -100 -154 131 0
-128 -101 -154 131 0
-128 -102 -154 131 0
-128 -100 -155 131 0
-128 -101 -155 132 0
-128 -102 -155 132 0
-128 -100 -156 131 0
-128 -101 -156 132 0
-128 -102 -156 132 0
-129 -100 -154 131 0
-129 -101 -154 131 0
-129 -102 -154 131 0
-129 -100 -155 131 0
-129 -101 -155 132 0
-129 -102 -155 132 0
-129 -100 -156 131 0
-129 -101 -156 132 0
-129 -102 -156 130 0
-154 -19 -127 158 0
-154 -20 -127 158 0
-154 -21 -127 158 0
-154 -19 -128 158 0
-154 -20 -128 158 0
-154 -21 -128 158 0
-154 -19 -129 158 0
-154 -20 -129 158 0
-154 -21 -129 158 0
-155 -19 -127 158 0
-155 -20 -127 158 0
-155 -21 -127 158 0
-155 -19 -128 158 0
-155 -20 -128 159 0
-155 -21 -128 159 0
-155 -19 -129 158 0
-155 -20 -129 159 0
-155 -21 -129 159 0
-156 -19 -127 158 0
-156 -20 -127 158 0
-156 -21 -127 158 0
-156 -19 -128 158 0
-156 -20 -128 159 0
-156 -21 -128 159 0
-156 -19 -129 158 0
-156 -20 -129 159 0
-156 -21 -129 157 0
-22 -49 -157 26 0
-22 -50 -157 26 0
-22 -51 -157 26 0
-22 -49 -158 26 0
-22 -50 -158 26 0
-22 -51 -158 26 0
-22 -49 -159 26 0
-22 -50 -159 26 0
-22 -51 -159 26 0
-23 -49 -157 26 0
-23 -50 -157 26 0
-23 -51 -157 26 0
-23 -49 -158 26 0
-23 -50 -158 27 0
-23 -51 -158 27 0
-23 -49 -159 26 0
-23 -50 -159 27 0
-23 -51 -159 27 0
-24 -49 -157 26 0
-24 -50 -157 26 0
-24 -51 -157 26 0
-24 -49 -158 26 0
-24 -50 -158 27 0
-24 -51 -158 27 0
-24 -49 -159 26 0
-24 -50 -159 27 0
-24 -51 -159 25 0
-49 -22 -76 53 0
-49 -23 -76 53 0
-49 -24 -76 53 0
-49 -22 -77 53 0
-49 -23 -77 53 0
-49 -24 -77 53 0
-49 -22 -78 53 0
-49 -23 -78 53 0
-49 -24 -78 53 0
-50 -22 -76 53 0
-50 -23 -76 53 0
-50 -24 -76 53 0
-50 -22 -77 53 0
-50 -23 -77 54 0
-50 -24 -77 54 0
-50 -22 -78 53 0
-50 -23 -78 54 0
-50 -24 -78 54 0
-51 -22 -76 53 0
-51 -23 -76 53 0
-51 -24 -76 53 0
-51 -22 -77 53 0
-51 -23 -77 54 0
-51 -24 -77 54 0
-51 -22 -78 53 0
-51 -23 -78 54 0
-51 -24 -78 52 0
-76 -49 -103 80 0
-76 -50 -103 80 0
-76 -51 -103 80 0
-76 -49 -104 80 0
-76 -50 -104 80 0
-76 -51 -104 80 0
-76 -49 -105 80 0
-76 -50 -105 80 0
-76 -51 -105 80 0
-77 -49 -103 80 0
-77 -50 -103 80 0
-77 -51 -103 80 0
-77 -49 -104 80 0
-77 -50 -104 81 0
-77 -51 -104 81 0
-77 -49 -105 80 0
-77 -50 -105 81 0
-77 -51 -105 81 0
-78 -49 -103 80 0
-78 -50 -103 80 0
-78 -51 -103 80 0
-78 -49 -104 80 0
-78 -50 -104 81 0
-78 -51 -104 81 0
-78 -49 -105 80 0
-78 -50 -105 81 0
-78 -51 -105 79 0
-103 -76 -130 107 0
-103 -77 -130 107 0
-103 -78 -130 107 0
-103 -76 -131 107 0
-103 -77 -131 107 0
-103 -78 -131 107 0
-103 -76 -132 107 0
-103 -77 -132 107 0
-103 -78 -132 107 0
-104 -76 -130 107 0
-104 -77 -130 107 0
-104 -78 -130 107 0
-104 -76 -131 107 0
-104 -77 -131 108 0
-104 -78 -131 108 0
-104 -76 -132 107 0
-104 -77 -132 108 0
-104 -78 -132 108 0
-105 -76 -130 107 0
-105 -77 -130 107 0
-105 -78 -130 107 0
-105 -76 -131 107 0
-105 -77 -131 108 0
-105 -78 -131 108 0
-105 -76 -132 107 0
-105 -77 -132 108 0
-105 -78 -132 106 0
-130 -103 -157 134 0
-130 -104 -157 134 0
-130 -105 -157 134 0
-130 -103 -158 134 0
-130 -104 -158 134 0
-130 -105 -158 134 0
-130 -103 -159 134 0
-130 -104 -159 134 0
-130 -105 -159 134 0
-131 -103 -157 134 0
-131 -104 -157 134 0
-131 -105 -157 134 0
-131 -103 -158 134 0
-131 -104 -158 135 0
-131 -105 -158 135 0
-131 -103 -159 134 0
-131 -104 -159 135 0
-131 -105 -159 135 0
-132 -103 -157 134 0
-132 -104 -157 134 0
-132 -105 -157 134 0
-132 -103 -158 134 0
-132 -104 -158 135 0
-132 -105 -158 135 0
-132 -103 -159 134 0
-132 -104 -159 135 0
-132 -105 -159 133 0
-157 -22 -130 161 0
-157 -23 -130 161 0
-157 -24 -130 161 0
-157 -22 -131 161 0
-157 -23 -131 161 0
-157 -24 -131 161 0
-157 -22 -132 161 0
-157 -23 -132 161 0
-157 -24 -132 161 0
-158 -22 -130 161 0
-158 -23 -130 161 0
-158 -24 -130 161 0
-158 -22 -131 161 0
-158 -23 -131 162 0
-158 -24 -131 162 0
-158 -22 -132 161 0
-158 -23 -132 162 0
-158 -24 -132 162 0
-159 -22 -130 161 0
-159 -23 -130 161 0
-159 -24 -130 161 0
-159 -22 -131 161 0
-159 -23 -131 162 0
-159 -24 -131 162 0
-159 -22 -132 161 0
-159 -23 -132 162 0
-159 -24 -132 160 0
-25 -52 -79 -106 -133 -160 0
-26 -53 -80 -107 -134 -161 0
-27 -54 -81 -108 -135 -162 0
-1 -28 -55 -82 -109 -136 0
-2 -29 -56 -83 -110 -137 0
-3 -30 -57 -84 -111 -138 0
-7 -34 -61 -88 -115 -142 0
-8 -35 -62 -89 -116 -143 0
-9 -36 -63 -90 -117 -144 0
-16 -43 -70 -97 -124 -151 0
-17 -44 -71 -98 -125 -152 0
-18 -45 -72 -99 -126 -153 0
